c description: Graph 4-Colorability of graph: 
c generator: CNFgen (0.9.0)
c copyright: (C) 2012-2020 Massimo Lauria <massimo.lauria@uniroma1.it>
c url: https://massimolauria.net/cnfgen
c
p cnf 120 450
1 2 3 4 0
-1 -2 0
-1 -3 0
-1 -4 0
-2 -3 0
-2 -4 0
-3 -4 0
5 6 7 8 0
-5 -6 0
-5 -7 0
-5 -8 0
-6 -7 0
-6 -8 0
-7 -8 0
9 10 11 12 0
-9 -10 0
-9 -11 0
-9 -12 0
-10 -11 0
-10 -12 0
-11 -12 0
13 14 15 16 0
-13 -14 0
-13 -15 0
-13 -16 0
-14 -15 0
-14 -16 0
-15 -16 0
17 18 19 20 0
-17 -18 0
-17 -19 0
-17 -20 0
-18 -19 0
-18 -20 0
-19 -20 0
21 22 23 24 0
-21 -22 0
-21 -23 0
-21 -24 0
-22 -23 0
-22 -24 0
-23 -24 0
25 26 27 28 0
-25 -26 0
-25 -27 0
-25 -28 0
-26 -27 0
-26 -28 0
-27 -28 0
29 30 31 32 0
-29 -30 0
-29 -31 0
-29 -32 0
-30 -31 0
-30 -32 0
-31 -32 0
33 34 35 36 0
-33 -34 0
-33 -35 0
-33 -36 0
-34 -35 0
-34 -36 0
-35 -36 0
37 38 39 40 0
-37 -38 0
-37 -39 0
-37 -40 0
-38 -39 0
-38 -40 0
-39 -40 0
41 42 43 44 0
-41 -42 0
-41 -43 0
-41 -44 0
-42 -43 0
-42 -44 0
-43 -44 0
45 46 47 48 0
-45 -46 0
-45 -47 0
-45 -48 0
-46 -47 0
-46 -48 0
-47 -48 0
49 50 51 52 0
-49 -50 0
-49 -51 0
-49 -52 0
-50 -51 0
-50 -52 0
-51 -52 0
53 54 55 56 0
-53 -54 0
-53 -55 0
-53 -56 0
-54 -55 0
-54 -56 0
-55 -56 0
57 58 59 60 0
-57 -58 0
-57 -59 0
-57 -60 0
-58 -59 0
-58 -60 0
-59 -60 0
61 62 63 64 0
-61 -62 0
-61 -63 0
-61 -64 0
-62 -63 0
-62 -64 0
-63 -64 0
65 66 67 68 0
-65 -66 0
-65 -67 0
-65 -68 0
-66 -67 0
-66 -68 0
-67 -68 0
69 70 71 72 0
-69 -70 0
-69 -71 0
-69 -72 0
-70 -71 0
-70 -72 0
-71 -72 0
73 74 75 76 0
-73 -74 0
-73 -75 0
-73 -76 0
-74 -75 0
-74 -76 0
-75 -76 0
77 78 79 80 0
-77 -78 0
-77 -79 0
-77 -80 0
-78 -79 0
-78 -80 0
-79 -80 0
81 82 83 84 0
-81 -82 0
-81 -83 0
-81 -84 0
-82 -83 0
-82 -84 0
-83 -84 0
85 86 87 88 0
-85 -86 0
-85 -87 0
-85 -88 0
-86 -87 0
-86 -88 0
-87 -88 0
89 90 91 92 0
-89 -90 0
-89 -91 0
-89 -92 0
-90 -91 0
-90 -92 0
-91 -92 0
93 94 95 96 0
-93 -94 0
-93 -95 0
-93 -96 0
-94 -95 0
-94 -96 0
-95 -96 0
97 98 99 100 0
-97 -98 0
-97 -99 0
-97 -100 0
-98 -99 0
-98 -100 0
-99 -100 0
101 102 103 104 0
-101 -102 0
-101 -103 0
-101 -104 0
-102 -103 0
-102 -104 0
-103 -104 0
105 106 107 108 0
-105 -106 0
-105 -107 0
-105 -108 0
-106 -107 0
-106 -108 0
-107 -108 0
109 110 111 112 0
-109 -110 0
-109 -111 0
-109 -112 0
-110 -111 0
-110 -112 0
-111 -112 0
113 114 115 116 0
-113 -114 0
-113 -115 0
-113 -116 0
-114 -115 0
-114 -116 0
-115 -116 0
117 118 119 120 0
-117 -118 0
-117 -119 0
-117 -120 0
-118 -119 0
-118 -120 0
-119 -120 0
-1 -5 0
-2 -6 0
-3 -7 0
-4 -8 0
-1 -21 0
-2 -22 0
-3 -23 0
-4 -24 0
-1 -25 0
-2 -26 0
-3 -27 0
-4 -28 0
-1 -89 0
-2 -90 0
-3 -91 0
-4 -92 0
-1 -93 0
-2 -94 0
-3 -95 0
-4 -96 0
-1 -97 0
-2 -98 0
-3 -99 0
-4 -100 0
-5 -13 0
-6 -14 0
-7 -15 0
-8 -16 0
-9 -29 0
-10 -30 0
-11 -31 0
-12 -32 0
-9 -33 0
-10 -34 0
-11 -35 0
-12 -36 0
-9 -61 0
-10 -62 0
-11 -63 0
-12 -64 0
-9 -77 0
-10 -78 0
-11 -79 0
-12 -80 0
-9 -93 0
-10 -94 0
-11 -95 0
-12 -96 0
-9 -101 0
-10 -102 0
-11 -103 0
-12 -104 0
-9 -117 0
-10 -118 0
-11 -119 0
-12 -120 0
-13 -17 0
-14 -18 0
-15 -19 0
-16 -20 0
-13 -25 0
-14 -26 0
-15 -27 0
-16 -28 0
-13 -45 0
-14 -46 0
-15 -47 0
-16 -48 0
-13 -53 0
-14 -54 0
-15 -55 0
-16 -56 0
-13 -65 0
-14 -66 0
-15 -67 0
-16 -68 0
-17 -73 0
-18 -74 0
-19 -75 0
-20 -76 0
-17 -89 0
-18 -90 0
-19 -91 0
-20 -92 0
-21 -61 0
-22 -62 0
-23 -63 0
-24 -64 0
-21 -105 0
-22 -106 0
-23 -107 0
-24 -108 0
-21 -117 0
-22 -118 0
-23 -119 0
-24 -120 0
-25 -37 0
-26 -38 0
-27 -39 0
-28 -40 0
-25 -65 0
-26 -66 0
-27 -67 0
-28 -68 0
-25 -97 0
-26 -98 0
-27 -99 0
-28 -100 0
-25 -109 0
-26 -110 0
-27 -111 0
-28 -112 0
-29 -73 0
-30 -74 0
-31 -75 0
-32 -76 0
-29 -85 0
-30 -86 0
-31 -87 0
-32 -88 0
-33 -49 0
-34 -50 0
-35 -51 0
-36 -52 0
-33 -53 0
-34 -54 0
-35 -55 0
-36 -56 0
-33 -65 0
-34 -66 0
-35 -67 0
-36 -68 0
-33 -77 0
-34 -78 0
-35 -79 0
-36 -80 0
-33 -81 0
-34 -82 0
-35 -83 0
-36 -84 0
-33 -97 0
-34 -98 0
-35 -99 0
-36 -100 0
-37 -101 0
-38 -102 0
-39 -103 0
-40 -104 0
-37 -117 0
-38 -118 0
-39 -119 0
-40 -120 0
-41 -93 0
-42 -94 0
-43 -95 0
-44 -96 0
-41 -97 0
-42 -98 0
-43 -99 0
-44 -100 0
-41 -101 0
-42 -102 0
-43 -103 0
-44 -104 0
-41 -105 0
-42 -106 0
-43 -107 0
-44 -108 0
-45 -57 0
-46 -58 0
-47 -59 0
-48 -60 0
-45 -105 0
-46 -106 0
-47 -107 0
-48 -108 0
-53 -61 0
-54 -62 0
-55 -63 0
-56 -64 0
-53 -77 0
-54 -78 0
-55 -79 0
-56 -80 0
-57 -93 0
-58 -94 0
-59 -95 0
-60 -96 0
-61 -117 0
-62 -118 0
-63 -119 0
-64 -120 0
-65 -109 0
-66 -110 0
-67 -111 0
-68 -112 0
-69 -81 0
-70 -82 0
-71 -83 0
-72 -84 0
-69 -93 0
-70 -94 0
-71 -95 0
-72 -96 0
-73 -93 0
-74 -94 0
-75 -95 0
-76 -96 0
-77 -81 0
-78 -82 0
-79 -83 0
-80 -84 0
-77 -117 0
-78 -118 0
-79 -119 0
-80 -120 0
-81 -101 0
-82 -102 0
-83 -103 0
-84 -104 0
-89 -101 0
-90 -102 0
-91 -103 0
-92 -104 0
-89 -105 0
-90 -106 0
-91 -107 0
-92 -108 0
-97 -113 0
-98 -114 0
-99 -115 0
-100 -116 0
-101 -117 0
-102 -118 0
-103 -119 0
-104 -120 0
-113 -117 0
-114 -118 0
-115 -119 0
-116 -120 0